set P[1]  := ;
set P[2]  := 1;
set P[3]  := 1;
set P[4]  := 1;
set P[5]  := 2;
set P[6]  := 2, 3;
set P[7]  := 4, 6;
set P[8]  := 7;
set P[9]  := 4;
set P[10] := 8, 9;
set P[11] := 5, 10;

param m := 6;

param tasks := 11;

param d :=
1	5
2	23
3	9
4	30
5	18
6	12
7	6
8	16
9	4
10	20
11	11;

param CT := 40;